c "644167.clq"
p edge 100 1344
e 1 17
e 1 18
e 1 19
e 1 20
e 1 21
e 1 22
e 1 24
e 1 29
e 1 33
e 1 38
e 1 40
e 1 47
e 1 52
e 1 71
e 1 72
e 1 75
e 1 83
e 2 17
e 2 18
e 2 20
e 2 21
e 2 23
e 2 26
e 2 34
e 2 35
e 2 38
e 2 39
e 2 40
e 2 46
e 2 51
e 2 64
e 2 70
e 2 73
e 2 86
e 2 96
e 2 98
e 3 17
e 3 18
e 3 19
e 3 20
e 3 21
e 3 22
e 3 23
e 3 24
e 3 26
e 3 28
e 3 32
e 3 33
e 3 35
e 3 37
e 3 38
e 3 39
e 3 41
e 3 46
e 3 47
e 3 51
e 3 56
e 3 61
e 3 65
e 3 78
e 3 83
e 3 87
e 3 88
e 3 94
e 3 99
e 3 100
e 4 17
e 4 18
e 4 19
e 4 20
e 4 21
e 4 22
e 4 23
e 4 25
e 4 26
e 4 29
e 4 30
e 4 32
e 4 39
e 4 43
e 4 54
e 4 55
e 4 66
e 4 74
e 4 79
e 4 86
e 4 94
e 4 99
e 5 17
e 5 18
e 5 19
e 5 20
e 5 21
e 5 22
e 5 23
e 5 25
e 5 26
e 5 27
e 5 28
e 5 30
e 5 32
e 5 36
e 5 37
e 5 38
e 5 40
e 5 41
e 5 45
e 5 47
e 5 50
e 5 52
e 5 54
e 5 57
e 5 58
e 5 59
e 5 60
e 5 63
e 5 66
e 5 69
e 5 74
e 5 81
e 5 82
e 5 91
e 5 97
e 5 99
e 6 17
e 6 18
e 6 21
e 6 22
e 6 24
e 6 25
e 6 27
e 6 40
e 6 43
e 6 46
e 6 54
e 6 55
e 6 63
e 6 70
e 6 72
e 6 90
e 7 17
e 7 18
e 7 19
e 7 20
e 7 21
e 7 22
e 7 23
e 7 24
e 7 25
e 7 27
e 7 29
e 7 32
e 7 33
e 7 34
e 7 36
e 7 37
e 7 39
e 7 42
e 7 44
e 7 45
e 7 47
e 7 52
e 7 53
e 7 54
e 7 59
e 7 60
e 7 61
e 7 64
e 7 65
e 7 70
e 7 72
e 7 82
e 7 85
e 7 89
e 7 90
e 7 94
e 8 17
e 8 19
e 8 24
e 8 27
e 8 31
e 8 48
e 8 49
e 8 63
e 8 91
e 8 98
e 9 17
e 9 18
e 9 19
e 9 20
e 9 22
e 9 23
e 9 25
e 9 28
e 9 31
e 9 32
e 9 34
e 9 35
e 9 37
e 9 38
e 9 39
e 9 41
e 9 43
e 9 45
e 9 47
e 9 49
e 9 51
e 9 53
e 9 58
e 9 63
e 9 66
e 9 72
e 9 74
e 9 83
e 9 86
e 9 91
e 10 17
e 10 18
e 10 19
e 10 21
e 10 22
e 10 23
e 10 30
e 10 34
e 10 36
e 10 39
e 10 47
e 10 62
e 10 72
e 10 77
e 10 79
e 10 80
e 10 92
e 10 94
e 11 17
e 11 18
e 11 19
e 11 20
e 11 23
e 11 24
e 11 26
e 11 33
e 11 34
e 11 35
e 11 43
e 11 45
e 11 49
e 11 50
e 11 53
e 11 60
e 11 61
e 11 68
e 11 75
e 11 79
e 11 88
e 11 89
e 11 99
e 12 17
e 12 18
e 12 19
e 12 20
e 12 22
e 12 23
e 12 24
e 12 26
e 12 28
e 12 29
e 12 30
e 12 35
e 12 42
e 12 43
e 12 47
e 12 54
e 12 57
e 12 64
e 12 71
e 12 73
e 12 91
e 12 93
e 12 96
e 13 17
e 13 18
e 13 19
e 13 20
e 13 21
e 13 23
e 13 27
e 13 28
e 13 30
e 13 31
e 13 34
e 13 36
e 13 41
e 13 44
e 13 55
e 13 63
e 13 66
e 13 78
e 13 96
e 14 17
e 14 18
e 14 19
e 14 20
e 14 21
e 14 22
e 14 23
e 14 24
e 14 25
e 14 27
e 14 28
e 14 30
e 14 31
e 14 39
e 14 40
e 14 44
e 14 60
e 14 62
e 14 67
e 14 68
e 14 69
e 14 72
e 14 76
e 14 79
e 14 80
e 14 83
e 14 96
e 15 17
e 15 18
e 15 19
e 15 20
e 15 21
e 15 22
e 15 23
e 15 25
e 15 26
e 15 27
e 15 28
e 15 29
e 15 31
e 15 32
e 15 33
e 15 34
e 15 36
e 15 37
e 15 41
e 15 43
e 15 46
e 15 48
e 15 49
e 15 57
e 15 60
e 15 61
e 15 62
e 15 63
e 15 69
e 15 73
e 15 75
e 15 92
e 15 95
e 15 96
e 16 17
e 16 18
e 16 19
e 16 20
e 16 21
e 16 24
e 16 25
e 16 28
e 16 29
e 16 33
e 16 35
e 16 42
e 16 44
e 16 46
e 16 67
e 16 69
e 16 70
e 16 72
e 16 77
e 16 86
e 16 87
e 16 88
e 16 92
e 17 18
e 17 19
e 17 20
e 17 21
e 17 22
e 17 23
e 17 24
e 17 25
e 17 26
e 17 27
e 17 28
e 17 29
e 17 31
e 17 34
e 17 36
e 17 37
e 17 38
e 17 39
e 17 40
e 17 42
e 17 43
e 17 49
e 17 51
e 17 52
e 17 53
e 17 56
e 17 57
e 17 59
e 17 64
e 17 66
e 17 69
e 17 70
e 17 73
e 17 75
e 17 77
e 17 79
e 17 80
e 17 83
e 17 87
e 17 90
e 17 91
e 17 93
e 17 97
e 18 19
e 18 20
e 18 21
e 18 22
e 18 24
e 18 25
e 18 26
e 18 27
e 18 28
e 18 29
e 18 30
e 18 31
e 18 34
e 18 35
e 18 37
e 18 41
e 18 42
e 18 46
e 18 49
e 18 52
e 18 55
e 18 56
e 18 58
e 18 59
e 18 61
e 18 63
e 18 71
e 18 81
e 18 85
e 18 87
e 18 94
e 18 97
e 18 98
e 18 99
e 18 100
e 19 20
e 19 21
e 19 22
e 19 23
e 19 24
e 19 25
e 19 26
e 19 27
e 19 28
e 19 29
e 19 30
e 19 31
e 19 32
e 19 33
e 19 34
e 19 35
e 19 38
e 19 40
e 19 41
e 19 42
e 19 44
e 19 48
e 19 49
e 19 50
e 19 53
e 19 54
e 19 55
e 19 56
e 19 57
e 19 58
e 19 60
e 19 64
e 19 65
e 19 66
e 19 69
e 19 70
e 19 76
e 19 78
e 19 82
e 19 84
e 19 87
e 19 93
e 19 94
e 19 95
e 19 96
e 19 97
e 20 21
e 20 22
e 20 23
e 20 24
e 20 25
e 20 26
e 20 27
e 20 28
e 20 29
e 20 30
e 20 31
e 20 32
e 20 33
e 20 36
e 20 38
e 20 45
e 20 47
e 20 49
e 20 50
e 20 51
e 20 59
e 20 60
e 20 61
e 20 71
e 20 80
e 20 88
e 20 100
e 21 22
e 21 24
e 21 25
e 21 26
e 21 27
e 21 29
e 21 32
e 21 33
e 21 34
e 21 36
e 21 37
e 21 38
e 21 41
e 21 42
e 21 47
e 21 48
e 21 50
e 21 52
e 21 55
e 21 60
e 21 62
e 21 67
e 21 68
e 21 71
e 21 73
e 21 77
e 21 80
e 21 81
e 21 82
e 21 84
e 21 88
e 21 92
e 21 95
e 21 97
e 21 100
e 22 23
e 22 24
e 22 25
e 22 26
e 22 27
e 22 28
e 22 30
e 22 34
e 22 38
e 22 39
e 22 41
e 22 43
e 22 44
e 22 46
e 22 47
e 22 51
e 22 55
e 22 56
e 22 63
e 22 67
e 22 68
e 22 69
e 22 71
e 22 73
e 22 74
e 22 78
e 22 85
e 22 86
e 22 89
e 22 90
e 22 95
e 22 97
e 23 24
e 23 25
e 23 26
e 23 27
e 23 29
e 23 30
e 23 31
e 23 33
e 23 34
e 23 35
e 23 38
e 23 39
e 23 41
e 23 43
e 23 44
e 23 45
e 23 48
e 23 53
e 23 54
e 23 57
e 23 58
e 23 64
e 23 68
e 23 69
e 23 73
e 23 85
e 23 86
e 23 95
e 23 96
e 24 25
e 24 26
e 24 28
e 24 29
e 24 30
e 24 31
e 24 32
e 24 33
e 24 35
e 24 36
e 24 37
e 24 44
e 24 45
e 24 47
e 24 48
e 24 49
e 24 50
e 24 51
e 24 52
e 24 55
e 24 56
e 24 57
e 24 60
e 24 64
e 24 65
e 24 66
e 24 67
e 24 68
e 24 70
e 24 73
e 24 77
e 24 78
e 24 79
e 24 80
e 24 83
e 24 87
e 24 88
e 24 91
e 24 93
e 24 97
e 24 98
e 25 26
e 25 27
e 25 28
e 25 29
e 25 31
e 25 32
e 25 33
e 25 34
e 25 35
e 25 36
e 25 37
e 25 38
e 25 46
e 25 47
e 25 48
e 25 49
e 25 50
e 25 52
e 25 53
e 25 56
e 25 57
e 25 59
e 25 61
e 25 62
e 25 66
e 25 69
e 25 72
e 25 78
e 25 85
e 25 89
e 25 95
e 25 100
e 26 27
e 26 29
e 26 30
e 26 31
e 26 32
e 26 34
e 26 37
e 26 39
e 26 41
e 26 42
e 26 43
e 26 47
e 26 48
e 26 49
e 26 52
e 26 53
e 26 58
e 26 62
e 26 73
e 26 74
e 26 75
e 26 77
e 26 79
e 26 81
e 26 82
e 26 83
e 26 84
e 26 89
e 26 90
e 26 95
e 26 96
e 27 28
e 27 30
e 27 32
e 27 33
e 27 34
e 27 36
e 27 38
e 27 40
e 27 41
e 27 42
e 27 44
e 27 45
e 27 46
e 27 50
e 27 53
e 27 55
e 27 57
e 27 59
e 27 61
e 27 62
e 27 65
e 27 70
e 27 74
e 27 75
e 27 77
e 27 78
e 27 84
e 27 86
e 27 87
e 27 92
e 27 93
e 27 95
e 28 29
e 28 30
e 28 31
e 28 33
e 28 35
e 28 36
e 28 37
e 28 40
e 28 43
e 28 44
e 28 46
e 28 48
e 28 49
e 28 50
e 28 51
e 28 53
e 28 58
e 28 62
e 28 63
e 28 65
e 28 68
e 28 69
e 28 70
e 28 71
e 28 74
e 28 75
e 28 78
e 28 80
e 28 83
e 28 85
e 28 86
e 28 87
e 28 95
e 28 100
e 29 30
e 29 31
e 29 32
e 29 36
e 29 37
e 29 39
e 29 40
e 29 45
e 29 50
e 29 51
e 29 52
e 29 57
e 29 59
e 29 61
e 29 62
e 29 66
e 29 67
e 29 72
e 29 76
e 29 80
e 29 89
e 29 96
e 30 31
e 30 32
e 30 39
e 30 40
e 30 42
e 30 43
e 30 44
e 30 51
e 30 52
e 30 53
e 30 54
e 30 55
e 30 56
e 30 60
e 30 61
e 30 66
e 30 67
e 30 70
e 30 71
e 30 74
e 30 75
e 30 76
e 30 77
e 30 82
e 30 90
e 30 92
e 30 95
e 30 97
e 30 98
e 30 99
e 31 32
e 31 33
e 31 35
e 31 39
e 31 42
e 31 46
e 31 48
e 31 49
e 31 50
e 31 51
e 31 52
e 31 53
e 31 56
e 31 58
e 31 62
e 31 64
e 31 65
e 31 66
e 31 68
e 31 74
e 31 75
e 31 76
e 31 77
e 31 79
e 31 86
e 31 87
e 31 88
e 31 89
e 31 92
e 31 93
e 32 33
e 32 35
e 32 36
e 32 43
e 32 48
e 32 51
e 32 53
e 32 58
e 32 62
e 32 67
e 32 70
e 32 71
e 32 72
e 32 73
e 32 74
e 32 76
e 32 79
e 32 85
e 32 91
e 32 98
e 32 99
e 33 35
e 33 36
e 33 37
e 33 39
e 33 40
e 33 41
e 33 42
e 33 44
e 33 46
e 33 54
e 33 59
e 33 60
e 33 65
e 33 69
e 33 74
e 33 79
e 34 35
e 34 37
e 34 39
e 34 40
e 34 44
e 34 45
e 34 46
e 34 48
e 34 50
e 34 51
e 34 53
e 34 57
e 34 60
e 34 61
e 34 63
e 34 65
e 34 66
e 34 68
e 34 75
e 34 81
e 34 91
e 34 93
e 34 96
e 35 36
e 35 38
e 35 42
e 35 43
e 35 44
e 35 45
e 35 47
e 35 50
e 35 52
e 35 54
e 35 55
e 35 58
e 35 59
e 35 62
e 35 64
e 35 67
e 35 73
e 35 76
e 35 82
e 35 83
e 35 84
e 35 85
e 35 91
e 35 92
e 35 94
e 35 96
e 35 97
e 36 37
e 36 38
e 36 40
e 36 41
e 36 43
e 36 44
e 36 46
e 36 47
e 36 51
e 36 56
e 36 61
e 36 62
e 36 64
e 36 65
e 36 75
e 36 78
e 36 84
e 36 87
e 36 89
e 36 91
e 36 92
e 36 98
e 37 38
e 37 40
e 37 44
e 37 45
e 37 46
e 37 51
e 37 52
e 37 57
e 37 58
e 37 64
e 37 65
e 37 70
e 37 71
e 37 76
e 37 83
e 37 89
e 37 90
e 37 94
e 37 100
e 38 40
e 38 41
e 38 42
e 38 45
e 38 54
e 38 58
e 38 62
e 38 67
e 38 68
e 38 75
e 38 76
e 38 81
e 38 82
e 38 84
e 38 88
e 38 90
e 38 95
e 38 96
e 38 100
e 39 41
e 39 42
e 39 43
e 39 45
e 39 48
e 39 49
e 39 50
e 39 61
e 39 62
e 39 64
e 39 65
e 39 74
e 39 75
e 39 78
e 39 81
e 39 88
e 39 98
e 39 99
e 39 100
e 40 46
e 40 49
e 40 55
e 40 56
e 40 59
e 40 63
e 40 67
e 40 68
e 40 84
e 40 93
e 40 98
e 41 42
e 41 45
e 41 53
e 41 57
e 41 60
e 41 63
e 41 65
e 41 70
e 41 82
e 41 95
e 41 99
e 42 45
e 42 48
e 42 66
e 42 67
e 42 69
e 42 73
e 42 79
e 42 80
e 42 89
e 42 94
e 43 50
e 43 52
e 43 56
e 43 64
e 43 73
e 43 87
e 43 93
e 43 96
e 44 50
e 44 52
e 44 54
e 44 57
e 44 64
e 44 66
e 44 77
e 44 83
e 44 88
e 44 90
e 44 92
e 45 48
e 45 58
e 45 59
e 45 61
e 45 63
e 45 71
e 45 79
e 45 82
e 46 47
e 46 56
e 46 59
e 46 60
e 46 68
e 46 72
e 46 82
e 46 83
e 46 97
e 47 48
e 47 49
e 47 54
e 47 56
e 47 58
e 47 61
e 47 63
e 47 68
e 47 72
e 47 81
e 47 86
e 47 88
e 47 91
e 47 92
e 48 51
e 48 58
e 48 62
e 48 63
e 48 72
e 48 73
e 48 74
e 48 78
e 48 81
e 48 84
e 48 87
e 48 88
e 48 97
e 48 98
e 48 100
e 49 55
e 49 64
e 49 76
e 49 82
e 49 85
e 49 89
e 49 90
e 49 99
e 50 54
e 50 55
e 50 57
e 50 58
e 50 59
e 50 63
e 50 65
e 50 66
e 50 68
e 50 71
e 50 75
e 50 84
e 50 88
e 50 90
e 50 94
e 51 55
e 51 73
e 51 74
e 51 76
e 51 86
e 51 91
e 51 94
e 52 53
e 52 54
e 52 56
e 52 59
e 52 80
e 52 90
e 52 93
e 52 95
e 53 54
e 53 56
e 53 59
e 53 72
e 53 76
e 53 77
e 53 79
e 53 80
e 53 84
e 54 55
e 54 61
e 54 79
e 54 80
e 54 89
e 54 91
e 54 93
e 54 99
e 55 60
e 55 66
e 55 82
e 55 94
e 56 57
e 56 64
e 56 65
e 56 68
e 56 76
e 56 84
e 56 88
e 56 96
e 56 98
e 57 60
e 57 71
e 57 72
e 57 74
e 57 76
e 57 77
e 57 84
e 57 85
e 57 86
e 57 87
e 57 95
e 58 65
e 58 71
e 58 81
e 58 92
e 58 93
e 58 97
e 59 67
e 59 69
e 59 77
e 59 98
e 59 99
e 59 100
e 60 67
e 60 69
e 60 70
e 60 72
e 60 75
e 60 76
e 60 78
e 60 83
e 60 84
e 60 89
e 60 90
e 60 98
e 60 99
e 61 67
e 61 76
e 61 77
e 61 82
e 61 85
e 61 87
e 62 68
e 62 69
e 62 70
e 62 74
e 62 79
e 62 80
e 62 82
e 62 84
e 62 86
e 62 87
e 62 89
e 62 95
e 62 98
e 63 71
e 64 67
e 64 75
e 64 78
e 64 81
e 64 83
e 65 70
e 65 80
e 65 91
e 65 99
e 65 100
e 66 78
e 66 81
e 67 77
e 67 91
e 68 69
e 68 81
e 68 100
e 69 77
e 69 86
e 69 91
e 69 93
e 70 71
e 70 94
e 71 73
e 71 85
e 71 86
e 71 97
e 71 100
e 72 85
e 72 86
e 73 78
e 73 82
e 73 94
e 74 80
e 74 83
e 74 85
e 74 88
e 75 90
e 76 79
e 76 80
e 76 81
e 76 84
e 76 85
e 77 78
e 77 93
e 78 81
e 79 88
e 79 92
e 79 97
e 80 81
e 80 83
e 80 92
e 80 99
e 81 85
e 81 94
e 81 96
e 82 89
e 82 93
e 83 90
e 83 92
e 84 87
e 84 94
e 85 96
e 86 93
e 88 89
e 88 90
e 88 92
e 88 95
e 88 98
e 90 97
e 93 97
e 93 98
e 96 99
e 97 100
e 99 100
